c Instancia generada aleatoriamente
p edge 40 77
e 1 2
e 1 18
e 1 22
e 1 23
e 2 9
e 2 14
e 2 28
e 2 29
e 3 5
e 3 7
e 3 33
e 4 14
e 4 22
e 4 23
e 4 28
e 5 22
e 5 30
e 5 33
e 6 16
e 6 28
e 7 12
e 7 15
e 8 17
e 8 20
e 8 38
e 9 20
e 10 11
e 10 40
e 11 20
e 11 23
e 11 28
e 12 21
e 12 29
e 12 33
e 12 35
e 12 40
e 13 16
e 13 18
e 13 21
e 13 29
e 15 19
e 15 22
e 15 25
e 16 18
e 16 31
e 17 22
e 17 25
e 17 34
e 18 27
e 19 36
e 19 40
e 20 35
e 20 39
e 22 34
e 22 40
e 23 28
e 24 35
e 24 36
e 24 37
e 25 31
e 26 31
e 26 34
e 28 31
e 28 33
e 28 35
e 28 36
e 28 37
e 29 39
e 29 40
e 30 34
e 31 34
e 31 35
e 32 35
e 32 36
e 33 35
e 33 39
e 37 39
